min:770x1+790x2+790x3+790x4+790x5+770x6+750x7;
Sunday: x2 + x3 + x4 + x5 + x6 >= 20;
Monday: x3 + x4 + x5 + x6 + x7 >= 25;
Tuesday: x1 + x4 + x5 + x6 + x7 >= 22;
Wednesday: x1 + x2 + x5 + x6 + x7 >= 28;
Thursday: x1 + x2 + x3 + x6 + x7 >= 25;
Friday: x1 + x2 + x3 + x4 + x7 >= 22;
Saturday: x1 + x2 + x3 + x4 + x5 >= 20;
int x1, x2, x3, x4, x5, x6, x7;
